(set-option :print-success false)
(set-logic QF_UF)
(declare-sort x138 0)
(declare-sort x53 0)
(declare-fun x77 () x53)
(declare-fun x67 (x53 x53) x53)
(declare-fun x5 (x53 x53) x53)
(declare-fun x54 () x53)
(declare-fun x86 () x53)
(declare-fun x100 () x53)
(declare-fun x134 () x53)
(assert (and (and (and (or (= x54 (x5 (x5 x100 x54) x100)) (or (= x54 (x5 (x5 x86 x54) x86)) (or (= x54 (x5 (x5 x54 x54) x54)) (or (= (x5 (x5 x134 x54) x134) x54) (= (x5 (x5 x77 x54) x77) x54))))) (and (or (or (= x134 (x5 (x5 x86 x134) x86)) (or (= x134 (x5 (x5 x54 x134) x54)) (or (= (x5 (x5 x77 x134) x77) x134) (= x134 (x5 (x5 x134 x134) x134))))) (= x134 (x5 (x5 x100 x134) x100))) (or (or (or (or (= x77 (x5 (x5 x77 x77) x77)) (= (x5 (x5 x134 x77) x134) x77)) (= x77 (x5 (x5 x54 x77) x54))) (= (x5 (x5 x86 x77) x86) x77)) (= x77 (x5 (x5 x100 x77) x100))))) (or (or (= (x5 (x5 x86 x86) x86) x86) (or (or (= x86 (x5 (x5 x77 x86) x77)) (= x86 (x5 (x5 x134 x86) x134))) (= x86 (x5 (x5 x54 x86) x54)))) (= (x5 (x5 x100 x86) x100) x86))) (or (= (x5 (x5 x100 x100) x100) x100) (or (or (= x100 (x5 (x5 x54 x100) x54)) (or (= (x5 (x5 x134 x100) x134) x100) (= x100 (x5 (x5 x77 x100) x77)))) (= x100 (x5 (x5 x86 x100) x86))))))
(assert (or (and (and (and (not (= (x5 (x5 x100 x54) x54) x54)) (and (not (= (x5 (x5 x100 x77) x77) x77)) (not (= (x5 (x5 x100 x134) x134) x134)))) (not (= x86 (x5 (x5 x100 x86) x86)))) (not (= (x5 (x5 x100 x100) x100) x100))) (or (or (or (and (and (and (and (not (= (x5 (x5 x134 x77) x77) x77)) (not (= x134 (x5 (x5 x134 x134) x134)))) (not (= x54 (x5 (x5 x134 x54) x54)))) (not (= x86 (x5 (x5 x134 x86) x86)))) (not (= (x5 (x5 x134 x100) x100) x100))) (and (not (= x100 (x5 (x5 x77 x100) x100))) (and (not (= x86 (x5 (x5 x77 x86) x86))) (and (and (not (= (x5 (x5 x77 x134) x134) x134)) (not (= (x5 (x5 x77 x77) x77) x77))) (not (= (x5 (x5 x77 x54) x54) x54)))))) (and (not (= (x5 (x5 x54 x100) x100) x100)) (and (not (= (x5 (x5 x54 x86) x86) x86)) (and (and (not (= (x5 (x5 x54 x134) x134) x134)) (not (= (x5 (x5 x54 x77) x77) x77))) (not (= (x5 (x5 x54 x54) x54) x54)))))) (and (not (= x100 (x5 (x5 x86 x100) x100))) (and (not (= (x5 (x5 x86 x86) x86) x86)) (and (and (not (= x77 (x5 (x5 x86 x77) x77))) (not (= x134 (x5 (x5 x86 x134) x134)))) (not (= x54 (x5 (x5 x86 x54) x54)))))))))
(assert (or (and (and (and (and (not (= x100 (x5 x134 (x5 x100 x134)))) (not (= (x5 x77 (x5 x100 x77)) x100))) (not (= (x5 x54 (x5 x100 x54)) x100))) (not (= x100 (x5 x86 (x5 x100 x86))))) (not (= (x5 x100 (x5 x100 x100)) x100))) (or (or (and (not (= (x5 x100 (x5 x54 x100)) x54)) (and (and (not (= (x5 x54 (x5 x54 x54)) x54)) (and (not (= (x5 x134 (x5 x54 x134)) x54)) (not (= x54 (x5 x77 (x5 x54 x77)))))) (not (= x54 (x5 x86 (x5 x54 x86)))))) (or (and (and (not (= (x5 x86 (x5 x134 x86)) x134)) (and (and (not (= (x5 x77 (x5 x134 x77)) x134)) (not (= x134 (x5 x134 (x5 x134 x134))))) (not (= x134 (x5 x54 (x5 x134 x54)))))) (not (= (x5 x100 (x5 x134 x100)) x134))) (and (and (and (and (not (= (x5 x77 (x5 x77 x77)) x77)) (not (= (x5 x134 (x5 x77 x134)) x77))) (not (= x77 (x5 x54 (x5 x77 x54))))) (not (= x77 (x5 x86 (x5 x77 x86))))) (not (= x77 (x5 x100 (x5 x77 x100))))))) (and (not (= x86 (x5 x100 (x5 x86 x100)))) (and (not (= (x5 x86 (x5 x86 x86)) x86)) (and (and (not (= x86 (x5 x77 (x5 x86 x77)))) (not (= (x5 x134 (x5 x86 x134)) x86))) (not (= x86 (x5 x54 (x5 x86 x54))))))))))
(assert (and (and (= x54 (x5 x86 x86)) (and (= (x5 x100 x100) x134) (= (x5 x134 x134) x77))) (= x100 (x5 x86 x54))))
(assert (and (not (= x100 x86)) (and (not (= x54 x100)) (and (not (= x54 x86)) (and (not (= x77 x100)) (and (and (and (not (= x100 x134)) (and (not (= x86 x134)) (and (not (= x134 x77)) (not (= x134 x54))))) (not (= x77 x54))) (not (= x86 x77))))))))
(assert (let ((x105 (x5 x77 x77)) (x31 (x5 x86 x77)) (x22 (x5 x86 x54)) (x70 (x5 x134 x77)) (x87 (x5 x134 x134)) (x57 (x5 x100 x86)) (x145 (x5 x54 x134)) (x37 (x5 x77 x86)) (x111 (x5 x54 x86)) (x94 (x5 x100 x134)) (x92 (x5 x54 x100)) (x88 (x5 x77 x100)) (x8 (x5 x100 x54)) (x112 (x5 x54 x54)) (x75 (x5 x100 x100)) (x126 (x5 x86 x100)) (x108 (x5 x134 x54)) (x16 (x5 x77 x54)) (x44 (x5 x86 x86)) (x110 (x5 x54 x77)) (x56 (x5 x134 x86)) (x43 (x5 x77 x134)) (x3 (x5 x100 x77)) (x121 (x5 x134 x100)) (x151 (x5 x86 x134))) (let ((x59 (not (= x134 x145))) (x124 (not (= x134 x37))) (x71 (not (= x94 x100))) (x146 (not (= x77 x16))) (x28 (not (= x43 x77))) (x18 (not (= x54 x8))) (x65 (not (= x43 x134))) (x78 (not (= x134 x57))) (x25 (not (= x22 x134))) (x128 (not (= x56 x86))) (x85 (not (= x105 x77))) (x95 (not (= x54 x75))) (x119 (not (= x8 x86))) (x47 (not (= x77 x121))) (x49 (not (= x8 x134))) (x6 (not (= x111 x77))) (x12 (not (= x77 x151))) (x149 (not (= x92 x134))) (x159 (not (= x16 x54))) (x114 (not (= x77 x87))) (x101 (not (= x54 x121))) (x117 (not (= x54 x22))) (x91 (not (= x108 x86))) (x40 (not (= x105 x86))) (x83 (not (= x57 x100))) (x140 (not (= x31 x134))) (x4 (not (= x77 x44))) (x143 (not (= x145 x54))) (x15 (not (= x112 x54))) (x158 (not (= x22 x86))) (x102 (not (= x87 x100))) (x1 (not (= x16 x134))) (x113 (not (= x87 x134))) (x24 (not (= x134 x94))) (x21 (not (= x31 x54))) (x9 (not (= x54 x88))) (x60 (not (= x54 x92))) (x141 (not (= x77 x22))) (x135 (not (= x87 x54))) (x144 (not (= x105 x100))) (x58 (not (= x43 x54))) (x125 (not (= x87 x86))) (x115 (not (= x134 x56))) (x41 (not (= x56 x54))) (x27 (not (= x86 x3))) (x107 (not (= x151 x100))) (x11 (not (= x112 x134))) (x30 (not (= x86 x88))) (x106 (not (= x3 x77))) (x156 (not (= x75 x77))) (x69 (not (= x54 x70))) (x142 (not (= x126 x86))) (x79 (not (= x121 x100))) (x19 (not (= x16 x86))) (x155 (not (= x134 x75))) (x137 (not (= x126 x54))) (x61 (not (= x108 x100))) (x123 (not (= x54 x44))) (x132 (not (= x31 x77))) (x20 (not (= x54 x110))) (x133 (not (= x77 x94))) (x89 (not (= x77 x37))) (x14 (not (= x86 x110))) (x29 (not (= x100 x43))) (x130 (not (= x54 x94))) (x72 (not (= x110 x77))) (x10 (not (= x134 x3))) (x152 (not (= x56 x100))) (x76 (not (= x134 x44))) (x51 (not (= x54 x105))) (x48 (not (= x100 x88))) (x104 (not (= x86 x112))) (x35 (not (= x100 x16))) (x109 (not (= x110 x100))) (x154 (not (= x31 x100))) (x80 (not (= x100 x75))) (x32 (not (= x100 x70))) (x122 (not (= x86 x75))) (x82 (not (= x108 x134))) (x52 (not (= x86 x57))) (x147 (not (= x151 x86))) (x2 (not (= x86 x111))) (x139 (not (= x3 x100))) (x99 (not (= x57 x54))) (x150 (not (= x100 x145))) (x74 (not (= x94 x86))) (x50 (not (= x77 x92))) (x116 (not (= x37 x86))) (x55 (not (= x92 x100))) (x157 (not (= x77 x112))) (x97 (not (= x86 x70))) (x120 (not (= x77 x88))) (x36 (not (= x134 x121))) (x127 (not (= x108 x54))) (x84 (not (= x54 x3))) (x33 (not (= x108 x77))) (x81 (not (= x56 x77))) (x23 (not (= x44 x86))) (x13 (not (= x100 x8))) (x73 (not (= x111 x134))) (x148 (not (= x57 x77))) (x17 (not (= x54 x111))) (x90 (not (= x145 x77))) (x39 (not (= x54 x151))) (x62 (not (= x22 x100))) (x38 (not (= x121 x86))) (x63 (not (= x134 x151))) (x96 (not (= x134 x126))) (x131 (not (= x86 x31))) (x45 (not (= x100 x112))) (x153 (not (= x77 x8))) (x7 (not (= x37 x100))) (x103 (not (= x134 x88))) (x66 (not (= x77 x70))) (x93 (not (= x37 x54))) (x118 (not (= x134 x70))) (x98 (not (= x92 x86))) (x68 (not (= x77 x126))) (x42 (not (= x134 x110))) (x26 (not (= x134 x105))) (x129 (not (= x100 x44))) (x34 (not (= x126 x100))) (x64 (not (= x86 x145))) (x46 (not (= x111 x100))) (x136 (not (= x86 x43)))) (or (and (and (and (or x83 x34) (and (or x13 x55) (and (or x71 x79) (or x48 x139)))) (or x80 x80)) (and (and (and (and (or x46 x62) (and (and (or x150 x61) (or x109 x35)) (or x45 x45))) (or x13 x55)) (and (and (or x71 x79) (and (and (and (or x102 x102) (or x32 x29)) (or x150 x61)) (or x107 x152))) (and (or x48 x139) (and (or x7 x154) (and (and (or x29 x32) (or x144 x144)) (or x35 x109)))))) (and (or x83 x34) (and (or x129 x129) (and (and (or x7 x154) (or x152 x107)) (or x62 x46)))))) (or (or (or (and (and (and (or x96 x78) (and (and (or x25 x73) (and (or x140 x124) (or x115 x63))) (or x76 x76))) (and (and (and (or x36 x24) (and (and (and (or x113 x113) (or x65 x118)) (or x59 x82)) (or x63 x115))) (and (and (and (or x42 x1) (and (or x26 x26) (or x118 x65))) (or x124 x140)) (or x10 x103))) (and (and (or x25 x73) (and (and (or x42 x1) (or x59 x82)) (or x11 x11))) (or x149 x49)))) (and (or x155 x155) (and (and (or x149 x49) (and (or x24 x36) (or x10 x103))) (or x96 x78)))) (and (and (and (and (and (and (or x12 x81) (and (and (or x114 x114) (or x28 x66)) (or x33 x90))) (or x47 x133)) (and (and (and (and (or x85 x85) (or x66 x28)) (or x72 x146)) (or x89 x132)) (or x106 x120))) (and (or x153 x50) (and (and (or x157 x157) (and (or x90 x33) (or x72 x146))) (or x141 x6)))) (and (or x68 x148) (and (and (or x141 x6) (and (or x89 x132) (or x12 x81))) (or x4 x4)))) (and (or x156 x156) (and (and (or x153 x50) (and (or x106 x120) (or x133 x47))) (or x68 x148))))) (and (and (and (or x99 x137) (and (or x60 x18) (and (or x101 x130) (or x84 x9)))) (or x95 x95)) (and (and (and (or x60 x18) (and (and (and (or x159 x20) (or x143 x127)) (or x15 x15)) (or x17 x117))) (and (and (or x130 x101) (and (and (or x127 x143) (and (or x58 x69) (or x135 x135))) (or x41 x39))) (and (or x9 x84) (and (or x93 x21) (and (and (or x51 x51) (or x58 x69)) (or x159 x20)))))) (and (or x99 x137) (and (and (and (or x41 x39) (or x93 x21)) (or x117 x17)) (or x123 x123)))))) (and (and (and (or x52 x142) (and (or x23 x23) (and (or x2 x158) (and (or x116 x131) (or x128 x147))))) (and (and (and (and (or x131 x116) (and (and (or x136 x97) (or x40 x40)) (or x19 x14))) (or x30 x27)) (and (and (or x147 x128) (and (and (or x97 x136) (or x125 x125)) (or x64 x91))) (or x74 x38))) (and (or x119 x98) (and (or x158 x2) (and (or x104 x104) (and (or x91 x64) (or x14 x19))))))) (and (and (and (or x98 x119) (and (or x30 x27) (or x38 x74))) (or x142 x52)) (or x122 x122))))))))
(assert (and (and (and (and (or (or (= (x5 (x5 x86 x134) x134) x86) (or (= (x5 (x5 x54 x134) x134) x54) (or (= x134 (x5 (x5 x134 x134) x134)) (= (x5 (x5 x77 x134) x134) x77)))) (= x100 (x5 (x5 x100 x134) x134))) (or (or (or (= x54 (x5 (x5 x54 x77) x77)) (or (= (x5 (x5 x77 x77) x77) x77) (= x134 (x5 (x5 x134 x77) x77)))) (= (x5 (x5 x86 x77) x77) x86)) (= (x5 (x5 x100 x77) x77) x100))) (or (or (= x86 (x5 (x5 x86 x54) x54)) (or (= (x5 (x5 x54 x54) x54) x54) (or (= x77 (x5 (x5 x77 x54) x54)) (= x134 (x5 (x5 x134 x54) x54))))) (= (x5 (x5 x100 x54) x54) x100))) (or (= (x5 (x5 x100 x86) x86) x100) (or (or (= (x5 (x5 x54 x86) x86) x54) (or (= (x5 (x5 x77 x86) x86) x77) (= x134 (x5 (x5 x134 x86) x86)))) (= x86 (x5 (x5 x86 x86) x86))))) (or (or (or (= (x5 (x5 x54 x100) x100) x54) (or (= x77 (x5 (x5 x77 x100) x100)) (= x134 (x5 (x5 x134 x100) x100)))) (= x86 (x5 (x5 x86 x100) x100))) (= (x5 (x5 x100 x100) x100) x100))))
(assert (and (or (= (x5 (x5 x100 x100) x100) x100) (or (= (x5 (x5 x100 x86) x100) x86) (or (or (= (x5 (x5 x100 x77) x100) x77) (= (x5 (x5 x100 x134) x100) x134)) (= x54 (x5 (x5 x100 x54) x100))))) (and (and (or (or (or (or (= (x5 (x5 x54 x77) x54) x77) (= (x5 (x5 x54 x134) x54) x134)) (= x54 (x5 (x5 x54 x54) x54))) (= (x5 (x5 x54 x86) x54) x86)) (= x100 (x5 (x5 x54 x100) x54))) (and (or (= (x5 (x5 x77 x100) x77) x100) (or (= x86 (x5 (x5 x77 x86) x77)) (or (= (x5 (x5 x77 x54) x77) x54) (or (= x134 (x5 (x5 x77 x134) x77)) (= x77 (x5 (x5 x77 x77) x77)))))) (or (or (= x86 (x5 (x5 x134 x86) x134)) (or (or (= x134 (x5 (x5 x134 x134) x134)) (= x77 (x5 (x5 x134 x77) x134))) (= (x5 (x5 x134 x54) x134) x54))) (= (x5 (x5 x134 x100) x134) x100)))) (or (or (or (= x54 (x5 (x5 x86 x54) x86)) (or (= x77 (x5 (x5 x86 x77) x86)) (= x134 (x5 (x5 x86 x134) x86)))) (= (x5 (x5 x86 x86) x86) x86)) (= (x5 (x5 x86 x100) x86) x100)))))
(assert (or (= (x5 x100 x100) x100) (or (= (x5 x86 x86) x86) (or (= (x5 x54 x54) x54) (or (= x77 (x5 x77 x77)) (= (x5 x134 x134) x134))))))
(assert (or (or (and (not (= x100 (x5 x100 (x5 x86 x100)))) (and (and (not (= (x5 x54 (x5 x86 x54)) x54)) (and (not (= x134 (x5 x134 (x5 x86 x134)))) (not (= (x5 x77 (x5 x86 x77)) x77)))) (not (= x86 (x5 x86 (x5 x86 x86)))))) (or (and (and (not (= (x5 x86 (x5 x54 x86)) x86)) (and (and (not (= x77 (x5 x77 (x5 x54 x77)))) (not (= (x5 x134 (x5 x54 x134)) x134))) (not (= (x5 x54 (x5 x54 x54)) x54)))) (not (= x100 (x5 x100 (x5 x54 x100))))) (or (and (and (and (and (not (= x134 (x5 x134 (x5 x134 x134)))) (not (= x77 (x5 x77 (x5 x134 x77))))) (not (= (x5 x54 (x5 x134 x54)) x54))) (not (= (x5 x86 (x5 x134 x86)) x86))) (not (= x100 (x5 x100 (x5 x134 x100))))) (and (not (= (x5 x100 (x5 x77 x100)) x100)) (and (not (= (x5 x86 (x5 x77 x86)) x86)) (and (not (= (x5 x54 (x5 x77 x54)) x54)) (and (not (= x134 (x5 x134 (x5 x77 x134)))) (not (= (x5 x77 (x5 x77 x77)) x77))))))))) (and (and (and (and (not (= (x5 x134 (x5 x100 x134)) x134)) (not (= x77 (x5 x77 (x5 x100 x77))))) (not (= x54 (x5 x54 (x5 x100 x54))))) (not (= x86 (x5 x86 (x5 x100 x86))))) (not (= (x5 x100 (x5 x100 x100)) x100)))))
(assert (let ((x149 (x5 x77 x100)) (x114 (x5 x100 x77)) (x159 (x5 x100 x86)) (x38 (x5 x100 x100)) (x59 (x5 x134 x86)) (x82 (x5 x134 x100)) (x88 (x5 x54 x54)) (x11 (x5 x54 x134)) (x118 (x5 x134 x77)) (x103 (x5 x77 x54)) (x65 (x5 x134 x134)) (x49 (x5 x77 x86)) (x26 (x5 x134 x54)) (x63 (x5 x86 x134)) (x58 (x5 x86 x86)) (x69 (x5 x86 x100)) (x112 (x5 x86 x54)) (x157 (x5 x100 x54)) (x90 (x5 x54 x100)) (x1 (x5 x77 x134)) (x115 (x5 x100 x134)) (x87 (x5 x86 x77)) (x10 (x5 x77 x77)) (x3 (x5 x54 x86)) (x155 (x5 x54 x77))) (let ((x151 (= x86 x10)) (x97 (= x100 x3)) (x6 (= x86 x88)) (x94 (= x100 x118)) (x76 (= x118 x134)) (x71 (= x115 x100)) (x144 (= x149 x54)) (x16 (= x134 x103)) (x111 (= x11 x54)) (x106 (= x87 x134)) (x7 (= x149 x86)) (x52 (= x77 x38)) (x131 (= x134 x69)) (x150 (= x90 x54)) (x75 (= x63 x77)) (x141 (= x86 x103)) (x18 (= x86 x3)) (x107 (= x86 x157)) (x40 (= x100 x58)) (x61 (= x54 x69)) (x20 (= x77 x58)) (x146 (= x77 x88)) (x136 (= x100 x49)) (x62 (= x86 x90)) (x72 (= x103 x77)) (x127 (= x3 x77)) (x74 (= x77 x159)) (x30 (= x77 x149)) (x93 (= x49 x54)) (x96 (= x10 x77)) (x153 (= x59 x134)) (x128 (= x90 x134)) (x108 (= x54 x10)) (x9 (= x49 x86)) (x130 (= x87 x86)) (x154 (= x82 x86)) (x4 (= x155 x100)) (x120 (= x134 x112)) (x85 (= x26 x134)) (x23 (= x77 x157)) (x148 (= x3 x134)) (x98 (= x69 x77)) (x113 (= x134 x65)) (x2 (= x114 x77)) (x34 (= x69 x100)) (x27 (= x82 x77)) (x116 (= x134 x38)) (x66 (= x134 x11)) (x132 (= x86 x155)) (x79 (= x114 x100)) (x57 (= x103 x100)) (x119 (= x77 x90)) (x92 (= x54 x26)) (x133 (= x88 x100)) (x41 (= x54 x112)) (x17 (= x58 x54)) (x60 (= x86 x58)) (x73 (= x1 x134)) (x84 (= x86 x59)) (x117 (= x3 x54)) (x24 (= x10 x134)) (x14 (= x157 x134)) (x8 (= x103 x54)) (x158 (= x115 x77)) (x105 (= x155 x134)) (x43 (= x118 x54)) (x68 (= x134 x58)) (x39 (= x87 x54)) (x140 (= x65 x54)) (x55 (= x149 x100)) (x126 (= x26 x100)) (x129 (= x86 x38)) (x124 (= x86 x65)) (x21 (= x59 x54)) (x64 (= x134 x115)) (x123 (= x63 x86)) (x122 (= x54 x114)) (x19 (= x159 x134)) (x78 (= x77 x118)) (x50 (= x134 x49)) (x156 (= x87 x77)) (x101 (= x86 x112)) (x70 (= x54 x1)) (x15 (= x54 x63)) (x45 (= x114 x86)) (x95 (= x112 x100)) (x25 (= x100 x65)) (x91 (= x134 x114)) (x99 (= x100 x63)) (x29 (= x159 x54)) (x83 (= x100 x90)) (x35 (= x86 x115)) (x31 (= x77 x155)) (x32 (= x54 x82)) (x37 (= x11 x77)) (x110 (= x88 x134)) (x13 (= x82 x100)) (x33 (= x26 x77)) (x81 (= x11 x86)) (x42 (= x77 x65)) (x147 (= x149 x134)) (x89 (= x26 x86)) (x121 (= x100 x1)) (x104 (= x134 x82)) (x12 (= x88 x54)) (x137 (= x100 x87)) (x135 (= x77 x112)) (x51 (= x59 x77)) (x152 (= x159 x86)) (x80 (= x100 x38)) (x48 (= x100 x159)) (x109 (= x38 x54)) (x145 (= x86 x1)) (x142 (= x54 x115)) (x102 (= x54 x157)) (x46 (= x86 x69)) (x36 (= x77 x1)) (x22 (= x155 x54)) (x28 (= x10 x100)) (x139 (= x100 x157)) (x44 (= x11 x100)) (x47 (= x134 x63)) (x125 (= x59 x100)) (x143 (= x49 x77)) (x56 (= x118 x86))) (and (and (and (and (and (and (and (or (or (or x81 (or x145 x124)) x123) x35) (or (or (or x89 (or x56 x124)) x84) x154)) (and (and (or (or x21 (or (or x43 x140) x92)) x32) (or (or x15 (or (or x140 x70) x111)) x142)) (and (and (or x27 (or x51 (or (or x42 x78) x33))) (or (or (or (or x42 x36) x37) x75) x158)) (and (or (or x47 (or x66 (or x73 x113))) x64) (or (or x153 (or (or x76 x113) x85)) x104))))) (and (or (or (or x126 (or x25 x94)) x125) x13) (or (or x99 (or (or x121 x25) x44)) x71))) (and (and (or (or x136 (or x57 (or x28 x121))) x55) (or (or (or (or x94 x28) x4) x137) x79)) (and (and (and (or (or x39 (or (or x108 x43) x22)) x122) (or (or (or (or x108 x70) x8) x93) x144)) (and (and (or (or (or x105 (or x76 x24)) x106) x91) (or (or (or x16 (or x73 x24)) x50) x147)) (and (or x30 (or x143 (or x72 (or x96 x36)))) (or x2 (or (or x31 (or x96 x78)) x156))))) (and (or x7 (or x9 (or (or x145 x151) x141))) (or x45 (or (or (or x151 x56) x132) x130)))))) (and (and (or (or (or x133 (or x57 x126)) x95) x139) (or (or x97 (or (or x4 x44) x133)) x83)) (and (and (and (and (or (or x135 (or (or x33 x72) x146)) x23) (or (or (or x146 (or x37 x31)) x127) x119)) (and (or x14 (or (or (or x85 x16) x110) x120)) (or (or (or (or x105 x66) x110) x148) x128))) (and (or x150 (or (or (or x22 x111) x12) x117)) (or (or x41 (or (or x92 x8) x12)) x102))) (and (or (or (or (or x89 x141) x6) x101) x107) (or (or (or x6 (or x81 x132)) x18) x62))))) (and (and (or (or (or x95 (or x137 x99)) x40) x34) (or x48 (or x40 (or (or x125 x136) x97)))) (and (and (and (or x61 (or x17 (or x41 (or x39 x15)))) (or (or (or x117 (or x21 x93)) x17) x29)) (and (and (or x98 (or x20 (or (or x75 x156) x135))) (or (or x20 (or x127 (or x143 x51))) x74)) (and (or x131 (or x68 (or x120 (or x47 x106)))) (or x19 (or (or x148 (or x153 x50)) x68))))) (and (or (or (or x101 (or x130 x123)) x60) x46) (or x152 (or x60 (or x18 (or x84 x9)))))))) (and (and (or x80 (or (or (or x55 x13) x83) x34)) (or x80 (or x48 (or (or x71 x79) x139)))) (and (and (or (or (or (or x35 x45) x107) x152) x129) (or x129 (or x46 (or (or x154 x7) x62)))) (and (and (or x109 (or (or (or x144 x32) x150) x61)) (or (or (or (or x122 x142) x102) x29) x109)) (and (and (or x116 (or (or (or x104 x147) x128) x131)) (or x116 (or (or x14 (or x91 x64)) x19))) (and (or (or (or (or x30 x27) x119) x98) x52) (or (or x74 (or x23 (or x158 x2))) x52))))))))))
(assert (let ((x26 (x5 x86 x86)) (x59 (x5 x100 x100)) (x118 (x5 x54 x54)) (x65 (x5 x77 x77)) (x113 (x5 x134 x134))) (or (and (not (= x100 x59)) (and (not (= x26 x100)) (and (and (not (= x113 x100)) (not (= x100 x65))) (not (= x100 x118))))) (or (or (and (not (= x54 x59)) (and (and (and (not (= x54 x113)) (not (= x65 x54))) (not (= x54 x118))) (not (= x54 x26)))) (or (and (not (= x59 x77)) (and (and (not (= x118 x77)) (and (not (= x65 x77)) (not (= x77 x113)))) (not (= x26 x77)))) (and (and (and (not (= x134 x118)) (and (not (= x134 x113)) (not (= x65 x134)))) (not (= x26 x134))) (not (= x134 x59))))) (and (not (= x86 x59)) (and (not (= x26 x86)) (and (not (= x86 x118)) (and (not (= x113 x86)) (not (= x86 x65))))))))))
(assert (let ((x65 (x5 x134 x77)) (x115 (x5 x54 x134)) (x11 (x5 x77 x86)) (x42 (x5 x77 x77)) (x140 (x5 x54 x77)) (x36 (x5 x86 x54)) (x118 (x5 x134 x54)) (x26 (x5 x134 x86)) (x49 (x5 x100 x134)) (x78 (x5 x100 x54)) (x76 (x5 x86 x134)) (x63 (x5 x77 x100)) (x82 (x5 x77 x134)) (x103 (x5 x86 x100)) (x113 (x5 x134 x134)) (x10 (x5 x86 x86)) (x59 (x5 x134 x100)) (x73 (x5 x54 x100)) (x1 (x5 x77 x54)) (x24 (x5 x86 x77)) (x155 (x5 x100 x100)) (x25 (x5 x54 x86)) (x96 (x5 x100 x86)) (x149 (x5 x100 x77)) (x124 (x5 x54 x54))) (and (and (or (or (= x86 (x5 x10 x10)) (or (or (= x134 (x5 x76 x76)) (= (x5 x24 x24) x77)) (= x54 (x5 x36 x36)))) (= x100 (x5 x103 x103))) (and (and (or (or (or (= x54 (x5 x118 x118)) (or (= x134 (x5 x113 x113)) (= (x5 x65 x65) x77))) (= x86 (x5 x26 x26))) (= x100 (x5 x59 x59))) (or (= (x5 x63 x63) x100) (or (or (or (= x134 (x5 x82 x82)) (= (x5 x42 x42) x77)) (= x54 (x5 x1 x1))) (= (x5 x11 x11) x86)))) (or (or (= (x5 x25 x25) x86) (or (or (= (x5 x115 x115) x134) (= x77 (x5 x140 x140))) (= (x5 x124 x124) x54))) (= x100 (x5 x73 x73))))) (or (or (or (= x54 (x5 x78 x78)) (or (= (x5 x149 x149) x77) (= (x5 x49 x49) x134))) (= x86 (x5 x96 x96))) (= (x5 x155 x155) x100)))))
(assert (let ((x113 (= (x5 x134 x134) x134)) (x1 (= x54 (x5 x54 x54))) (x63 (= (x5 x100 x100) x100)) (x11 (= x86 (x5 x86 x86))) (x118 (= x77 (x5 x77 x77)))) (let ((x59 (not x1)) (x82 (not x11)) (x65 (not x113)) (x26 (not x118)) (x42 (not x63))) (or (or (and x63 x42) (or (or (and (= (x5 x100 x54) x100) x59) (or (and (= (x5 x100 x134) x100) x65) (and x26 (= (x5 x100 x77) x100)))) (and (= (x5 x100 x86) x100) x82))) (or (or (or (or (or (and x26 (= (x5 x86 x77) x86)) (and (= (x5 x86 x134) x86) x65)) (and x59 (= x86 (x5 x86 x54)))) (and x11 x82)) (and (= (x5 x86 x100) x86) x42)) (or (or (or (or (or (and x59 (= x134 (x5 x134 x54))) (or (and x113 x65) (and x26 (= (x5 x134 x77) x134)))) (and x82 (= (x5 x134 x86) x134))) (and x42 (= (x5 x134 x100) x134))) (or (or (or (or (and x26 x118) (and (= x77 (x5 x77 x134)) x65)) (and x59 (= x77 (x5 x77 x54)))) (and (= x77 (x5 x77 x86)) x82)) (and (= (x5 x77 x100) x77) x42))) (or (and (= x54 (x5 x54 x100)) x42) (or (and x82 (= x54 (x5 x54 x86))) (or (or (and x26 (= x54 (x5 x54 x77))) (and x65 (= x54 (x5 x54 x134)))) (and x1 x59))))))))))
(assert (let ((x155 (x5 x77 x54)) (x63 (x5 x134 x100)) (x78 (x5 x77 x77)) (x66 (x5 x86 x77)) (x56 (x5 x54 x77)) (x82 (x5 x134 x134)) (x85 (x5 x86 x86)) (x88 (x5 x100 x86)) (x114 (x5 x77 x86)) (x49 (x5 x77 x134)) (x121 (x5 x54 x86)) (x31 (x5 x100 x54)) (x110 (x5 x100 x134)) (x105 (x5 x86 x54)) (x37 (x5 x100 x77)) (x28 (x5 x86 x134)) (x42 (x5 x134 x77)) (x151 (x5 x54 x54)) (x16 (x5 x86 x100)) (x43 (x5 x77 x100)) (x1 (x5 x134 x54)) (x3 (x5 x100 x100)) (x94 (x5 x54 x100)) (x11 (x5 x134 x86)) (x145 (x5 x54 x134))) (let ((x159 (= x86 x78)) (x76 (= x155 x134)) (x107 (= x3 x54)) (x6 (= x151 x77)) (x119 (= x77 x31)) (x20 (= x77 x28)) (x2 (= x134 x3)) (x23 (= x49 x100)) (x70 (= x114 x77)) (x40 (= x86 x85)) (x61 (= x54 x31)) (x7 (= x100 x66)) (x89 (= x77 x56)) (x58 (= x11 x86)) (x33 (= x134 x145)) (x139 (= x16 x100)) (x34 (= x88 x100)) (x104 (= x134 x37)) (x102 (= x100 x145)) (x108 (= x43 x77)) (x36 (= x114 x134)) (x65 (= x134 x42)) (x75 (= x134 x66)) (x125 (= x86 x28)) (x129 (= x31 x86)) (x27 (= x77 x37)) (x148 (= x134 x28)) (x147 (= x100 x1)) (x8 (= x134 x94)) (x91 (= x100 x82)) (x64 (= x16 x86)) (x157 (= x134 x151)) (x13 (= x100 x110)) (x30 (= x100 x155)) (x55 (= x100 x37)) (x79 (= x88 x86)) (x124 (= x77 x42)) (x122 (= x3 x77)) (x140 (= x134 x49)) (x84 (= x66 x54)) (x46 (= x100 x105)) (x93 (= x77 x85)) (x10 (= x77 x63)) (x137 (= x86 x94)) (x80 (= x100 x3)) (x120 (= x54 x121)) (x153 (= x54 x94)) (x123 (= x145 x86)) (x51 (= x86 x63)) (x97 (= x105 x86)) (x45 (= x100 x94)) (x118 (= x1 x134)) (x156 (= x86 x1)) (x44 (= x114 x54)) (x133 (= x54 x145)) (x21 (= x114 x86)) (x38 (= x78 x100)) (x113 (= x82 x134)) (x95 (= x16 x54)) (x152 (= x28 x100)) (x73 (= x1 x77)) (x111 (= x11 x54)) (x60 (= x86 x121)) (x90 (= x82 x54)) (x50 (= x86 x82)) (x128 (= x31 x134)) (x112 (= x54 x1)) (x57 (= x77 x94)) (x18 (= x105 x54)) (x29 (= x54 x110)) (x71 (= x100 x85)) (x106 (= x151 x54)) (x19 (= x100 x42)) (x132 (= x54 x78)) (x81 (= x77 x145)) (x35 (= x54 x88)) (x98 (= x114 x100)) (x72 (= x42 x54)) (x126 (= x43 x54)) (x142 (= x43 x100)) (x116 (= x134 x88)) (x99 (= x85 x54)) (x144 (= x54 x37)) (x131 (= x100 x11)) (x59 (= x63 x134)) (x62 (= x86 x37)) (x4 (= x121 x77)) (x68 (= x86 x42)) (x103 (= x134 x43)) (x130 (= x28 x54)) (x117 (= x43 x86)) (x9 (= x151 x86)) (x48 (= x86 x3)) (x109 (= x121 x100)) (x74 (= x110 x77)) (x41 (= x105 x77)) (x115 (= x77 x82)) (x154 (= x110 x86)) (x25 (= x134 x78)) (x87 (= x155 x77)) (x69 (= x85 x134)) (x96 (= x77 x78)) (x143 (= x16 x134)) (x24 (= x77 x11)) (x92 (= x54 x63)) (x39 (= x86 x155)) (x83 (= x100 x31)) (x22 (= x134 x121)) (x15 (= x77 x66)) (x149 (= x49 x77)) (x14 (= x110 x134)) (x150 (= x151 x100)) (x101 (= x56 x86)) (x127 (= x86 x49)) (x158 (= x100 x63)) (x17 (= x16 x77)) (x146 (= x56 x134)) (x52 (= x77 x88)) (x32 (= x100 x56)) (x141 (= x54 x155)) (x47 (= x54 x56)) (x12 (= x54 x49)) (x136 (= x86 x66)) (x26 (= x11 x134)) (x135 (= x134 x105))) (or (or (or (or (and (and (and (and (and (or (not x27) x38) (or x23 (not x74))) (or (not x119) x30)) (or (not x52) x98)) (or x142 (not x122))) (and (and (and (or (not x93) x21) (and (and (or (not x15) x159) (or (not x20) x127)) (or (not x41) x39))) (or x117 (not x17))) (and (and (or x126 (not x57)) (and (or (not x4) x44) (and (or (not x6) x141) (and (or x12 (not x81)) (or x132 (not x89)))))) (and (and (and (or x36 (not x24)) (and (and (or (not x115) x140) (or x25 (not x124))) (or (not x73) x76))) (or (not x10) x103)) (and (and (and (or (not x87) x87) (and (or (not x149) x149) (or (not x96) x96))) (or x70 (not x70))) (or x108 (not x108))))))) (and (and (or x158 (not x2)) (and (and (or (not x128) x147) (and (or x91 (not x14)) (or (not x104) x19))) (or (not x116) x131))) (and (and (and (and (and (or (not x157) x112) (and (or (not x146) x72) (or x90 (not x33)))) (or (not x22) x111)) (or x92 (not x8))) (and (and (or (not x103) x10) (and (or (not x36) x24) (and (or x73 (not x76)) (and (or (not x25) x124) (or (not x140) x115))))) (and (or x59 (not x59)) (and (or x26 (not x26)) (and (and (or (not x65) x65) (or (not x113) x113)) (or (not x118) x118)))))) (and (or x51 (not x143)) (and (and (and (or x50 (not x148)) (or x68 (not x75))) (or (not x135) x156)) (or x58 (not x69))))))) (and (and (or (not x107) x45) (and (and (and (or x102 (not x29)) (or (not x144) x32)) (or (not x61) x150)) (or x109 (not x35)))) (and (and (and (or x60 (not x99)) (and (and (or x123 (not x130)) (or x101 (not x84))) (or (not x18) x9))) (or x137 (not x95))) (and (and (and (or x8 (not x92)) (and (and (or (not x112) x157) (and (or (not x72) x146) (or (not x90) x33))) (or (not x111) x22))) (and (or x57 (not x126)) (and (or (not x44) x4) (and (or (not x141) x6) (and (or (not x12) x81) (or x89 (not x132))))))) (and (or (not x153) x153) (and (or (not x120) x120) (and (and (or x47 (not x47)) (or (not x133) x133)) (or x106 (not x106))))))))) (and (and (and (or x64 (not x64)) (and (and (and (or x125 (not x125)) (or x136 (not x136))) (or (not x97) x97)) (or x40 (not x40)))) (and (and (or x95 (not x137)) (and (and (and (or x130 (not x123)) (or (not x101) x84)) (or (not x9) x18)) (or (not x60) x99))) (and (and (and (or x69 (not x58)) (and (or x135 (not x156)) (and (or (not x50) x148) (or (not x68) x75)))) (or (not x51) x143)) (and (or (not x117) x17) (and (and (and (or (not x127) x20) (or (not x159) x15)) (or x41 (not x39))) (or x93 (not x21))))))) (and (or (not x48) x139) (and (and (or x46 (not x129)) (and (or x152 (not x154)) (or (not x62) x7))) (or (not x79) x71))))) (and (and (and (and (and (and (or x154 (not x152)) (or x62 (not x7))) (or (not x46) x129)) (or x79 (not x71))) (or x48 (not x139))) (and (and (and (and (or x116 (not x131)) (and (or (not x147) x128) (and (or x14 (not x91)) (or (not x19) x104)))) (or (not x158) x2)) (and (or (not x142) x122) (and (and (or x119 (not x30)) (and (or x27 (not x38)) (or x74 (not x23)))) (or (not x98) x52)))) (and (and (and (or x61 (not x150)) (and (or (not x102) x29) (or (not x32) x144))) (or x35 (not x109))) (or x107 (not x45))))) (and (and (or x34 (not x34)) (and (or x83 (not x83)) (and (or x13 (not x13)) (or x55 (not x55))))) (or (not x80) x80)))))))
(assert (not (and (= x134 (x5 x100 x100)) (and (= (x5 x100 x86) x77) (and (and (= x100 (x5 x100 x77)) (and (and (and (= (x5 x86 x86) x54) (and (and (= x134 (x5 x86 x77)) (and (and (and (and (= (x5 x54 x54) x77) (and (and (= (x5 x54 x134) x100) (and (= x86 (x5 x77 x100)) (and (and (= (x5 x77 x54) x54) (and (= x77 (x5 x77 x77)) (and (and (= x100 (x5 x134 x100)) (and (and (= (x5 x134 x54) x134) (and (= x77 (x5 x134 x134)) (= (x5 x134 x77) x54))) (= x86 (x5 x134 x86)))) (= x134 (x5 x77 x134))))) (= (x5 x77 x86) x100)))) (= x86 (x5 x54 x77)))) (= (x5 x54 x86) x134)) (= (x5 x54 x100) x54)) (= x86 (x5 x86 x134)))) (= (x5 x86 x54) x100))) (= x77 (x5 x86 x100))) (= x54 (x5 x100 x134)))) (= (x5 x100 x54) x86))))))
(assert (let ((x140 (x5 x54 x77)) (x36 (x5 x86 x54)) (x1 (x5 x77 x54)) (x24 (x5 x86 x77)) (x103 (x5 x86 x100)) (x59 (x5 x134 x100)) (x63 (x5 x77 x100)) (x124 (x5 x54 x54)) (x49 (x5 x100 x134)) (x115 (x5 x54 x134)) (x26 (x5 x134 x86)) (x25 (x5 x54 x86)) (x10 (x5 x86 x86)) (x149 (x5 x100 x77)) (x76 (x5 x86 x134)) (x96 (x5 x100 x86)) (x73 (x5 x54 x100)) (x113 (x5 x134 x134)) (x82 (x5 x77 x134)) (x11 (x5 x77 x86)) (x78 (x5 x100 x54)) (x118 (x5 x134 x54)) (x42 (x5 x77 x77)) (x65 (x5 x134 x77)) (x155 (x5 x100 x100))) (and (and (and (and (and (and (and (and (or (or (or (= x113 x54) (or (= x113 x77) (= x113 x134))) (= x86 x113)) (= x113 x100)) (or (= x65 x100) (or (= x86 x65) (or (= x65 x54) (or (= x65 x134) (= x77 x65)))))) (or (or (or (= x118 x54) (or (= x118 x77) (= x134 x118))) (= x86 x118)) (= x100 x118))) (or (or (or (= x54 x26) (or (= x26 x134) (= x26 x77))) (= x26 x86)) (= x26 x100))) (or (= x59 x100) (or (or (= x54 x59) (or (= x77 x59) (= x134 x59))) (= x59 x86)))) (and (or (= x63 x100) (or (= x86 x63) (or (or (= x63 x77) (= x63 x134)) (= x54 x63)))) (and (and (or (or (= x86 x1) (or (= x54 x1) (or (= x1 x77) (= x134 x1)))) (= x100 x1)) (and (or (= x100 x42) (or (= x86 x42) (or (= x54 x42) (or (= x42 x134) (= x42 x77))))) (or (= x82 x100) (or (= x82 x86) (or (= x82 x54) (or (= x82 x134) (= x77 x82))))))) (or (or (= x86 x11) (or (= x54 x11) (or (= x77 x11) (= x134 x11)))) (= x11 x100))))) (and (or (or (or (= x54 x73) (or (= x134 x73) (= x73 x77))) (= x73 x86)) (= x100 x73)) (and (or (= x25 x100) (or (= x86 x25) (or (= x25 x54) (or (= x77 x25) (= x134 x25))))) (and (or (or (= x86 x124) (or (or (= x124 x77) (= x134 x124)) (= x124 x54))) (= x124 x100)) (and (or (or (or (or (= x140 x77) (= x140 x134)) (= x54 x140)) (= x140 x86)) (= x100 x140)) (or (= x100 x115) (or (or (= x115 x54) (or (= x77 x115) (= x115 x134))) (= x86 x115)))))))) (and (and (and (and (or (or (= x86 x24) (or (= x54 x24) (or (= x24 x134) (= x77 x24)))) (= x24 x100)) (or (or (= x86 x76) (or (= x76 x54) (or (= x76 x134) (= x76 x77)))) (= x100 x76))) (or (= x36 x100) (or (= x36 x86) (or (or (= x36 x77) (= x134 x36)) (= x54 x36))))) (or (= x10 x100) (or (or (or (= x10 x77) (= x10 x134)) (= x54 x10)) (= x10 x86)))) (or (= x103 x100) (or (or (= x54 x103) (or (= x103 x134) (= x77 x103))) (= x86 x103))))) (and (and (and (or (or (or (= x54 x78) (or (= x77 x78) (= x134 x78))) (= x86 x78)) (= x100 x78)) (and (or (or (= x86 x49) (or (= x49 x54) (or (= x49 x134) (= x49 x77)))) (= x100 x49)) (or (or (= x86 x149) (or (or (= x149 x134) (= x77 x149)) (= x54 x149))) (= x100 x149)))) (or (= x96 x100) (or (= x86 x96) (or (= x96 x54) (or (= x77 x96) (= x134 x96)))))) (or (= x155 x100) (or (or (or (= x77 x155) (= x155 x134)) (= x155 x54)) (= x86 x155)))))))
(assert (let ((x11 (x5 x86 x77)) (x76 (x5 x134 x86)) (x82 (x5 x134 x77)) (x1 (x5 x54 x77)) (x36 (x5 x54 x86)) (x63 (x5 x100 x77)) (x149 (x5 x77 x100)) (x113 (x5 x134 x134)) (x26 (x5 x86 x134)) (x115 (x5 x134 x54)) (x24 (x5 x77 x86)) (x118 (x5 x54 x134)) (x155 (x5 x100 x100)) (x140 (x5 x77 x54)) (x59 (x5 x100 x134)) (x96 (x5 x86 x100)) (x49 (x5 x134 x100)) (x73 (x5 x100 x54)) (x78 (x5 x54 x100)) (x25 (x5 x86 x54)) (x65 (x5 x77 x134)) (x103 (x5 x100 x86)) (x42 (x5 x77 x77)) (x10 (x5 x86 x86)) (x124 (x5 x54 x54))) (and (and (and (and (and (and (not (= x10 x25)) (and (and (and (and (and (not (= x10 x26)) (and (not (= x26 x11)) (not (= x25 x26)))) (not (= x96 x26))) (not (= x11 x25))) (not (= x11 x10))) (not (= x96 x11)))) (not (= x25 x96))) (not (= x10 x96))) (and (and (and (not (= x124 x78)) (and (and (and (not (= x36 x1)) (and (and (and (not (= x36 x118)) (and (not (= x118 x124)) (not (= x118 x1)))) (not (= x78 x118))) (not (= x124 x1)))) (not (= x1 x78))) (not (= x36 x124)))) (not (= x78 x36))) (and (and (not (= x49 x76)) (and (not (= x115 x49)) (and (and (and (and (and (and (and (not (= x113 x115)) (not (= x82 x113))) (not (= x113 x76))) (not (= x49 x113))) (not (= x115 x82))) (not (= x76 x82))) (not (= x49 x82))) (not (= x76 x115))))) (and (not (= x149 x24)) (and (and (and (not (= x149 x42)) (and (and (and (and (and (not (= x140 x65)) (not (= x65 x42))) (not (= x24 x65))) (not (= x65 x149))) (not (= x140 x42))) (not (= x24 x42)))) (not (= x140 x24))) (not (= x140 x149))))))) (and (and (and (not (= x73 x103)) (and (and (not (= x63 x103)) (and (and (not (= x59 x155)) (and (and (not (= x73 x59)) (not (= x59 x63))) (not (= x103 x59)))) (not (= x63 x73)))) (not (= x155 x63)))) (not (= x73 x155))) (not (= x103 x155)))) (and (and (and (and (not (= x36 x103)) (and (not (= x36 x10)) (and (and (and (not (= x36 x24)) (and (not (= x103 x76)) (and (and (not (= x36 x76)) (not (= x24 x76))) (not (= x76 x10))))) (not (= x24 x10))) (not (= x103 x24))))) (not (= x10 x103))) (and (and (not (= x25 x73)) (and (not (= x73 x124)) (and (and (and (and (and (and (and (not (= x140 x115)) (not (= x124 x115))) (not (= x115 x25))) (not (= x115 x73))) (not (= x124 x140))) (not (= x25 x140))) (not (= x73 x140))) (not (= x25 x124))))) (and (and (and (and (and (not (= x42 x63)) (and (not (= x11 x42)) (and (not (= x42 x1)) (and (and (not (= x82 x11)) (and (not (= x82 x1)) (not (= x82 x42)))) (not (= x82 x63)))))) (not (= x11 x1))) (not (= x63 x1))) (not (= x63 x11))) (and (not (= x26 x59)) (and (and (not (= x118 x26)) (and (and (not (= x26 x65)) (and (and (and (and (not (= x113 x118)) (not (= x113 x65))) (not (= x113 x26))) (not (= x59 x113))) (not (= x118 x65)))) (not (= x59 x65)))) (not (= x118 x59))))))) (and (and (and (not (= x96 x78)) (and (not (= x149 x155)) (and (not (= x149 x96)) (and (and (not (= x155 x49)) (and (not (= x96 x49)) (and (not (= x49 x149)) (not (= x49 x78))))) (not (= x149 x78)))))) (not (= x78 x155))) (not (= x155 x96)))))))
(assert (let ((x155 (x5 x100 x100)) (x59 (x5 x100 x134)) (x78 (x5 x54 x100)) (x149 (x5 x77 x100)) (x49 (x5 x134 x100)) (x26 (x5 x86 x134)) (x82 (x5 x134 x77)) (x24 (x5 x77 x86)) (x118 (x5 x54 x134)) (x42 (x5 x77 x77)) (x1 (x5 x54 x77)) (x76 (x5 x134 x86)) (x65 (x5 x77 x134)) (x124 (x5 x54 x54)) (x103 (x5 x100 x86)) (x11 (x5 x86 x77)) (x63 (x5 x100 x77)) (x73 (x5 x100 x54)) (x25 (x5 x86 x54)) (x36 (x5 x54 x86)) (x140 (x5 x77 x54)) (x113 (x5 x134 x134)) (x10 (x5 x86 x86)) (x115 (x5 x134 x54)) (x96 (x5 x86 x100))) (or (or (or (or (and (and (not (= x86 (x5 x26 x26))) (and (not (= (x5 x118 x118) x54)) (and (not (= (x5 x113 x113) x134)) (not (= (x5 x65 x65) x77))))) (not (= (x5 x59 x59) x100))) (and (and (and (not (= x54 (x5 x1 x1))) (and (not (= x134 (x5 x82 x82))) (not (= x77 (x5 x42 x42))))) (not (= (x5 x11 x11) x86))) (not (= x100 (x5 x63 x63))))) (and (and (and (and (not (= x134 (x5 x115 x115))) (not (= (x5 x140 x140) x77))) (not (= (x5 x124 x124) x54))) (not (= (x5 x25 x25) x86))) (not (= (x5 x73 x73) x100)))) (and (not (= (x5 x103 x103) x100)) (and (not (= (x5 x10 x10) x86)) (and (and (not (= x77 (x5 x24 x24))) (not (= (x5 x76 x76) x134))) (not (= x54 (x5 x36 x36))))))) (and (not (= (x5 x155 x155) x100)) (and (not (= (x5 x96 x96) x86)) (and (and (not (= x77 (x5 x149 x149))) (not (= x134 (x5 x49 x49)))) (not (= x54 (x5 x78 x78)))))))))
(assert (or (or (and (= (x5 x86 (x5 x86 x100)) x100) (and (= (x5 x86 (x5 x86 x86)) x86) (and (and (= (x5 x86 (x5 x86 x134)) x134) (= (x5 x86 (x5 x86 x77)) x77)) (= (x5 x86 (x5 x86 x54)) x54)))) (or (and (and (= x86 (x5 x54 (x5 x54 x86))) (and (and (= x77 (x5 x54 (x5 x54 x77))) (= (x5 x54 (x5 x54 x134)) x134)) (= (x5 x54 (x5 x54 x54)) x54))) (= x100 (x5 x54 (x5 x54 x100)))) (or (and (and (= (x5 x77 (x5 x77 x86)) x86) (and (and (= (x5 x77 (x5 x77 x77)) x77) (= (x5 x77 (x5 x77 x134)) x134)) (= (x5 x77 (x5 x77 x54)) x54))) (= x100 (x5 x77 (x5 x77 x100)))) (and (and (= x86 (x5 x134 (x5 x134 x86))) (and (= (x5 x134 (x5 x134 x54)) x54) (and (= (x5 x134 (x5 x134 x134)) x134) (= (x5 x134 (x5 x134 x77)) x77)))) (= (x5 x134 (x5 x134 x100)) x100))))) (and (= x100 (x5 x100 (x5 x100 x100))) (and (and (= x54 (x5 x100 (x5 x100 x54))) (and (= (x5 x100 (x5 x100 x134)) x134) (= x77 (x5 x100 (x5 x100 x77))))) (= (x5 x100 (x5 x100 x86)) x86)))))
(assert (or (and (and (and (and (not (= x77 (x5 x100 (x5 x100 x77)))) (not (= x134 (x5 x100 (x5 x100 x134))))) (not (= (x5 x100 (x5 x100 x54)) x54))) (not (= (x5 x100 (x5 x100 x86)) x86))) (not (= x100 (x5 x100 (x5 x100 x100))))) (or (and (not (= (x5 x86 (x5 x86 x100)) x100)) (and (and (not (= x54 (x5 x86 (x5 x86 x54)))) (and (not (= (x5 x86 (x5 x86 x134)) x134)) (not (= (x5 x86 (x5 x86 x77)) x77)))) (not (= (x5 x86 (x5 x86 x86)) x86)))) (or (and (and (and (and (not (= x77 (x5 x54 (x5 x54 x77)))) (not (= (x5 x54 (x5 x54 x134)) x134))) (not (= x54 (x5 x54 (x5 x54 x54))))) (not (= (x5 x54 (x5 x54 x86)) x86))) (not (= x100 (x5 x54 (x5 x54 x100))))) (or (and (and (and (and (not (= x134 (x5 x77 (x5 x77 x134)))) (not (= (x5 x77 (x5 x77 x77)) x77))) (not (= (x5 x77 (x5 x77 x54)) x54))) (not (= x86 (x5 x77 (x5 x77 x86))))) (not (= x100 (x5 x77 (x5 x77 x100))))) (and (and (not (= (x5 x134 (x5 x134 x86)) x86)) (and (and (not (= (x5 x134 (x5 x134 x134)) x134)) (not (= x77 (x5 x134 (x5 x134 x77))))) (not (= x54 (x5 x134 (x5 x134 x54)))))) (not (= (x5 x134 (x5 x134 x100)) x100))))))))
(check-sat)
(exit)
